clingo version 5.6.2
Reading from ...togen_asp_scripts/ijp_expt_cases-93.dl
Solving...
UNSATISFIABLE

Models       : 0
Calls        : 1
Time         : 1.132s (Solving: 0.87s 1st Model: 0.00s Unsat: 0.87s)
CPU Time     : 1.131s
